10J3M/DAT/10J3MULX-17.dat
10 3
1.0637 1.0314
17.5836 4.1933
32.3348 5.6864
45.4249 6.7398
37.125 6.093
11.9847 3.4619
4.2503 2.0616
31.2886 5.5936
25.0881 5.0088
11.4958 3.3905
14.4201