10J3M/SOL/10J3MULX-17.sol
solution status: optimal solution found
objective value:                              72.5465
x#1#1                               0.999999999999999 	(obj:0)
x#2#2                               0.823842746990399 	(obj:0)
x#2#3                               0.176157253009601 	(obj:0)
x#3#1                                               1 	(obj:0)
x#4#3                                               1 	(obj:0)
x#5#1                               0.346322440773346 	(obj:0)
x#5#2                               0.639034560547048 	(obj:0)
x#5#3                              0.0146429986796061 	(obj:0)
x#6#3                                               1 	(obj:0)
x#7#1                               0.282963411121462 	(obj:0)
x#7#2                               0.717036588878538 	(obj:0)
x#8#2                                               1 	(obj:0)
x#9#1                                               1 	(obj:0)
x#10#3                                              1 	(obj:0)
z                                             72.5465 	(obj:1)
